results/filo/x-long/X-n157-k13.vrp_seed-8.vrp.sol
Route #1: 16 103 65 87 97 62 142 128 26 120 14 49
Route #2: 18 107 52 134 10 39 58 29 114 109 60 12
Route #3: 148 13 63 64 141 43 24 156 150 8 149 71
Route #4: 38 122 69 99 93 36 68 20 75 118 147 15
Route #5: 47 5 153 76 136 112 89 81 119 2 57 88
Route #6: 129 91 100 51 90 83 45 77 11 82 113 151
Route #7: 143 32 42 3 106 73 135 21 121 54 110 41
Route #8: 126 1 117 9 108 40 80 146 78 125 139 70
Route #9: 59 96 102 111 132 86 94 66 28 7 137 92
Route #10: 101 27 44 124 130 104 127 145 46 19 116 37
Route #11: 61 56 152 105 95 55 115 6 35 4 67 17
Route #12: 72 48 33 84 79 74 30 22 155 25 138 34
Route #13: 131 133 50 154 98 123 53 144 85 140 31 23
Cost 16876.000000